p cnf 59 217
3 1 0
3 2 0
-1 -2 -3 0
6 4 0
6 -5 0
-4 5 -6 0
3 6 -7 0
-3 -6 -7 0
3 -6 7 0
-3 6 7 0
9 -7 0
9 -8 0
7 8 -9 0
-11 10 0
-11 -1 0
-10 1 11 0
-13 1 0
-13 12 0
-1 -12 13 0
11 13 -14 0
-11 -13 -14 0
11 -13 14 0
-11 13 14 0
-14 12 -15 0
14 -12 -15 0
-14 -12 15 0
14 12 15 0
16 15 0
16 -3 0
-15 3 -16 0
17 9 0
17 16 0
-9 -16 -17 0
18 3 0
18 -13 0
-3 13 -18 0
-19 10 -20 0
19 -10 -20 0
-19 -10 20 0
19 10 20 0
-1 20 -21 0
1 -20 -21 0
-1 -20 21 0
1 20 21 0
-19 21 -22 0
19 -21 -22 0
-19 -21 22 0
19 21 22 0
23 -18 0
23 -22 0
18 22 -23 0
-24 19 0
-24 2 0
-19 -2 24 0
-25 4 0
-25 -21 0
-4 21 25 0
3 25 -26 0
-3 -25 -26 0
3 -25 26 0
-3 25 26 0
-26 14 -27 0
26 -14 -27 0
-26 -14 27 0
26 14 27 0
-28 24 0
-28 27 0
-24 -27 28 0
-29 -6 0
-29 -6 0
6 29 0
-4 7 -30 0
4 -7 -30 0
-4 -7 30 0
4 7 30 0
31 30 0
31 21 0
-30 -21 -31 0
-32 29 0
-32 -31 0
-29 31 32 0
33 5 0
33 1 0
-5 -1 -33 0
-34 33 0
-34 -10 0
-33 10 34 0
-35 -34 0
-35 24 0
34 -24 35 0
36 -7 0
36 -12 0
7 12 -36 0
-36 37 0
36 37 0
38 35 0
38 -37 0
-35 37 -38 0
-32 38 -39 0
32 -38 -39 0
-32 -38 39 0
32 38 39 0
-40 -28 0
-40 -39 0
28 39 40 0
-42 -26 0
-42 -41 0
26 41 42 0
40 -42 -43 0
-40 42 -43 0
40 42 43 0
-40 -42 43 0
1 10 -44 0
-1 -10 -44 0
1 -10 44 0
-1 10 44 0
13 44 -45 0
-13 -44 -45 0
13 -44 45 0
-13 44 45 0
-34 -26 -46 0
34 26 -46 0
-34 26 46 0
34 -26 46 0
-45 46 -47 0
45 -46 -47 0
-45 -46 47 0
45 46 47 0
43 47 -48 0
-43 -47 -48 0
43 -47 48 0
-43 47 48 0
49 19 -50 0
-49 -19 -50 0
49 -19 50 0
-49 19 50 0
51 -4 0
51 -12 0
4 12 -51 0
52 -2 0
52 -13 0
2 13 -52 0
-53 51 0
-53 -52 0
-51 52 53 0
50 -53 -54 0
-50 53 -54 0
50 53 54 0
-50 -53 54 0
-55 -24 0
-55 49 0
24 -49 55 0
-56 -54 0
-56 55 0
54 -55 56 0
48 56 -57 0
-48 -56 -57 0
48 -56 57 0
-48 56 57 0
-23 -57 -58 0
23 57 -58 0
-23 57 58 0
23 -57 58 0
-59 17 0
-59 -58 0
-17 58 59 0
46 -10 -4 18 0
1 3 -33 0
-17 57 -21 -10 51 0
35 -56 -47 -25 0
16 -1 -4 2 -11 -24 0
48 7 -27 -55 0
50 -25 0
-43 -49 0
-3 -27 0
54 20 -51 0
-24 -46 34 -29 0
-28 -54 43 -47 -20 -42 0
6 -17 0
6 41 14 0
41 -37 -30 0
-5 7 0
-8 -43 23 0
-29 30 -23 42 0
4 -27 32 -6 0
21 -17 -54 20 53 -1 0
45 14 -50 9 0
-58 21 31 -49 -16 -17 0
-43 -15 -29 0
-52 -40 -36 -39 11 0
-8 31 -57 0
-24 13 30 48 15 0
5 -31 50 -42 -1 0
-45 44 0
-25 29 0
-8 -3 -7 32 -59 0
50 -13 -37 48 0
57 -50 0
21 -4 -49 52 0
-8 -25 18 45 32 0
30 -9 -20 -11 0
54 -58 0
35 -57 -9 0
34 -23 18 35 10 -53 0
-39 3 32 -58 47 -52 0
28 -2 -22 0
52 6 31 15 -30 23 0
22 50 0
11 2 0
-33 1 -52 -17 0
34 2 -50 0
55 -45 -48 -56 6 22 0
-15 -52 18 59 0
-11 -32 59 0
35 -11 -18 -31 57 0
22 -29 0
59 0
